results/real/sos1/feb_52_164.out
Version identifier: 22.1.1.0 | 2022-11-28 | 9160aff4d
CPXPARAM_Threads                                 1
CPXPARAM_MIP_Strategy_VariableSelect             3
CPXPARAM_TimeLimit                               599.99999349300003
1 of 1 MIP starts provided solutions.
MIP start 'm1' defined initial solution with objective 63.0000.
Tried aggregator 1 time.
MIP Presolve eliminated 20 rows and 820 columns.
MIP Presolve modified 58 coefficients.
Reduced MIP has 977 rows, 1312 columns, and 23139 nonzeros.
Reduced MIP has 1312 binaries, 0 generals, 0 SOSs, and 0 indicators.
Presolve time = 0.02 sec. (41.64 ticks)
Probing time = 0.00 sec. (7.36 ticks)
Tried aggregator 1 time.
Detecting symmetries...
MIP Presolve modified 8 coefficients.
Reduced MIP has 977 rows, 1312 columns, and 23303 nonzeros.
Reduced MIP has 1312 binaries, 0 generals, 0 SOSs, and 0 indicators.
Presolve time = 0.01 sec. (30.81 ticks)
Probing time = 0.00 sec. (7.37 ticks)
Clique table members: 647.
MIP emphasis: balance optimality and feasibility.
MIP search method: dynamic search.
Parallel mode: none, using 1 thread.
Root relaxation solution time = 0.00 sec. (7.44 ticks)

        Nodes                                         Cuts/
   Node  Left     Objective  IInf  Best Integer    Best Bound    ItCnt     Gap

*     0+    0                           63.0000    13530.0000              --- 
*     0     0      integral     0      164.0000      164.0000      227    0.00%
Elapsed time = 0.05 sec. (106.97 ticks, tree = 0.00 MB, solutions = 2)

Root node processing (before b&c):
  Real time             =    0.05 sec. (107.05 ticks)
Sequential b&c:
  Real time             =    0.00 sec. (0.00 ticks)
                          ------------
Total (root+branch&cut) =    0.05 sec. (107.05 ticks)
Primal:	164
Dual:	164
Status:	Optimal
Time:	0.05
Sequence:
	1
	9
	0
	9
	9
	9
	10
	7
	4
	1
	9
	0
	9
	9
	7
	9
	9
	9
	9
	9
	7
	9
	4
	6
	9
	0
	9
	9
	7
	9
	9
	9
	9
	1
	1
	10
	9
	7
	9
	9
	9
	1
	4
	0
	4
	7
	0
	9
	6
	1
	9
	0
	1
	4
	0
	4
	1
	7
	1
	4
	0
	6
	9
	7
	10
	9
	9
	1
	1
	9
	9
	1
	6
	1
	4
	1
	1
	1
	9
	1
	1
	7
	4
	1
	1
	4
	1
	7
	9
	9
	1
	1
	1
	9
	1
	1
	1
	9
	9
	9
	9
	4
	4
	9
	6
	9
	9
	4
	7
	9
	0
	6
	9
	0
	9
	9
	0
	6
	7
	9
	9
	9
	6
	9
	9
	0
	9
	9
	9
	4
	7
	9
	9
	4
	9
	1
	1
	4
	1
	1
	4
	4
	1
	1
	4
	1
	6
	4
	9
	1
	9
	1
	1
	1
	9
	4
	6
	9
	4
	9
	0
	9
	6
	1
